NAME : ClusterId_254 
COMMENT : (Gillet and Johnson) 
TYPE : CVRP 
DIMENSION : 3 
EDGE_WEIGHT_TYPE : EUC_2D 
CAPACITY : 500 
NODE_COORD_SECTION 
254 75 0 
15 83 -24 
197 70 -14 
DEMAND_SECTION 
254 100
15 1
197 90
DEPOT_SECTION 
254
 -1
EOF